c Generated map
c Size: 8 * 8, weights in range: 1 to 10, walls: True, with ratio 0.05
c dim 7 of 10
c
p sp 64 103
c graph contains 64 nodes and 103 arcs
c
a 1 9 10
a 9 1 10
a 1 2 1
a 2 1 1
a 2 10 1
a 10 2 1
a 2 3 2
a 3 2 2
a 3 11 5
a 11 3 5
a 3 4 10
a 4 3 10
a 4 12 3
a 12 4 3
a 4 5 4
a 5 4 4
a 5 13 7
a 13 5 7
a 5 6 3
a 6 5 3
a 6 14 8
a 14 6 8
a 6 7 8
a 7 6 8
a 7 15 10
a 15 7 10
a 7 8 8
a 8 7 8
a 8 16 1
a 16 8 1
a 9 17 3
a 17 9 3
a 9 10 5
a 10 9 5
a 10 18 4
a 18 10 4
a 10 11 2
a 11 10 2
a 11 19 2
a 19 11 2
a 11 12 1
a 12 11 1
a 12 20 8
a 20 12 8
a 12 13 7
a 13 12 7
a 13 21 5
a 21 13 5
a 13 14 3
a 14 13 3
a 14 22 9
a 22 14 9
a 14 15 5
a 15 14 5
a 15 23 2
a 23 15 2
a 15 16 9
a 16 15 9
a 16 24 2
a 24 16 2
a 17 25 2
a 25 17 2
a 17 18 8
a 18 17 8
a 18 26 2
a 26 18 2
a 18 19 10
a 19 18 10
a 19 27 9
a 27 19 9
a 19 20 10
a 20 19 10
a 20 28 10
a 28 20 10
a 20 21 8
a 21 20 8
a 21 29 6
a 29 21 6
a 21 22 7
a 22 21 7
a 22 30 2
a 30 22 2
a 22 23 3
a 23 22 3
a 23 31 6
a 31 23 6
a 23 24 7
a 24 23 7
a 24 32 8
a 32 24 8
a 25 33 5
a 33 25 5
a 25 26 7
a 26 25 7
a 26 34 2
a 34 26 2
a 26 27 7
a 27 26 7
a 27 35 2
a 35 27 2
a 27 28 4
a 28 27 4
a 28 36 7
a 36 28 7
a 28 29 7
a 29 28 7
a 29 37 7
a 37 29 7
a 29 30 5
a 30 29 5
a 30 38 10
a 38 30 10
a 30 31 6
a 31 30 6
a 31 39 3
a 39 31 3
a 31 32 7
a 32 31 7
a 32 40 2
a 40 32 2
a 33 34 4
a 34 33 4
a 34 42 6
a 42 34 6
a 34 35 2
a 35 34 2
a 35 43 5
a 43 35 5
a 35 36 3
a 36 35 3
a 36 44 10
a 44 36 10
a 36 37 9
a 37 36 9
a 37 38 5
a 38 37 5
a 38 46 3
a 46 38 3
a 38 39 7
a 39 38 7
a 39 47 1
a 47 39 1
a 39 40 4
a 40 39 4
a 40 48 9
a 48 40 9
a 42 50 5
a 50 42 5
a 42 43 5
a 43 42 5
a 43 51 4
a 51 43 4
a 43 44 9
a 44 43 9
a 44 52 4
a 52 44 4
a 46 54 9
a 54 46 9
a 46 47 1
a 47 46 1
a 47 55 6
a 55 47 6
a 47 48 7
a 48 47 7
a 48 56 6
a 56 48 6
a 50 58 1
a 58 50 1
a 50 51 9
a 51 50 9
a 51 59 8
a 59 51 8
a 51 52 1
a 52 51 1
a 52 60 10
a 60 52 10
a 52 53 7
a 53 52 7
a 53 61 4
a 61 53 4
a 53 54 8
a 54 53 8
a 54 62 3
a 62 54 3
a 54 55 5
a 55 54 5
a 55 63 4
a 63 55 4
a 55 56 5
a 56 55 5
a 56 64 2
a 64 56 2
a 57 58 10
a 58 57 10
a 58 59 10
a 59 58 10
a 59 60 4
a 60 59 4
a 60 61 6
a 61 60 6
a 61 62 5
a 62 61 5
a 62 63 6
a 63 62 6
a 63 64 2
a 64 63 2
